Route #1: 1 8 31 19 15 44 25 17 43 11 4 28 48 1
Route #2: 1 42 32 34 23 13 39 10 36 5 24 1
Route #3: 1 35 7 16 41 50 33 3 49 45 1
Route #4: 1 26 29 18 20 1
Route #5: 1 46 6 22 37 38 12 21 9 1
Route #6: 1 30 47 14 27 1
Route #7: 1 2 40 1
cost 869
